n_machines = 3;
n_resources = 5;
n_jobs = 25;
horizon = 1155;
LB = 385;
n_jobs_per_resource = [5, 5, 5, 5, 5];
duration = [23, 20, 3, 79, 78, 94, 49, 81, 18, 20, 36, 15, 79, 44, 2, 5, 59, 4, 19, 84, 65, 88, 92, 97, 1]